<number of tasks>
50

<cycle time>
1000

<order strength>
0.204


<task times>
1 252
2 226
3 269
4 107
5 106
6 195
7 92
8 117
9 303
10 320
11 74
12 112
13 60
14 224
15 518
16 178
17 73
18 497
19 219
20 57
21 180
22 132
23 145
24 270
25 277
26 255
27 295
28 190
29 576
30 25
31 544
32 317
33 190
34 533
35 66
36 276
37 221
38 157
39 53
40 90
41 441
42 223
43 410
44 86
45 72
46 262
47 271
48 277
49 487
50 174

<precedence relations>
1,41
1,44
2,9
2,13
2,35
3,7
4,10
4,12
5,11
5,14
6,8
7,29
8,16
8,17
9,48
11,20
12,19
13,15
13,21
14,18
14,37
16,24
16,35
16,38
17,46
18,25
19,23
20,22
20,23
20,26
20,27
20,29
21,28
22,31
22,32
23,34
23,44
24,33
24,36
24,43
24,44
25,30
26,35
27,37
30,38
31,39
38,41
38,44
39,40
39,42
39,43
41,47
43,48
44,45
44,46
44,49
44,50

<end>
